NAME : amz0853.178392_178392.tour
COMMENT : Cost = 178392_178392
COMMENT : Found by LKH-AMZ [Keld Helsgaun] Sun May 11 14:40:48 2025
COMMENT : TW viol.: 0 #: 0
TYPE : TOUR
DIMENSION : 153
TOUR_SECTION
138
45
136
143
50
148
52
100
145
108
49
32
78
40
127
142
37
152
36
90
71
4
99
63
57
104
21
55
128
124
116
11
87
70
119
130
132
117
105
120
95
92
94
103
115
7
74
23
1
85
113
26
13
75
83
12
89
111
43
79
102
41
109
137
139
54
35
122
118
17
42
88
147
39
34
114
61
151
56
134
129
123
38
141
82
146
22
144
30
64
106
93
96
98
72
20
48
31
126
140
76
14
27
15
10
81
19
18
66
80
112
91
58
67
8
110
46
62
73
149
44
24
60
53
84
97
69
59
68
121
101
107
77
51
16
86
131
2
29
25
150
125
5
135
28
65
6
133
9
153
33
3
47
-1
EOF
